certificates/rado_a9_c294_N33.drat
-33 0
30 0
-6 0
3 0
9 0
-27 0
-32 0
24 0
21 0
0
